
Gurobi 13.0.2 (win64) logging started Fri Jul 24 07:01:25 2026

Set parameter LogFile to value "E:\codes\ExactEBRP\results\gf_c0_mechanism_transfer_c5_round30\runs\stage1__moderate_seed6301__c0_diag__300s\external\native_logs\L0_attempt_0.gurobi.log"
Gurobi Optimizer version 13.0.2 build v13.0.2rc1 (win64 - Windows 10.0 (19045.2))

CPU model: 12th Gen Intel(R) Core(TM) i7-12700KF, instruction set [SSE2|AVX|AVX2]
Thread count: 12 physical cores, 20 logical processors, using up to 1 threads

Non-default parameters:
TimeLimit  30
MIPGap  0
MIPGapAbs  0
LogToConsole  0
Threads  1

Optimize a model with 93026 rows, 18191 columns and 665192 nonzeros (Min)
Model fingerprint: 0x72cd38c2
Model has 51 linear objective coefficients
Variable types: 9460 continuous, 8731 integer (8231 binary)
Coefficient statistics:
  Matrix range     [7e-03, 2e+04]
  Objective range  [7e-03, 1e+00]
  Bounds range     [2e-01, 5e+03]
  RHS range        [2e-01, 5e+04]

Presolve removed 5647 rows and 143 columns
Presolve time: 1.81s
Presolved: 87379 rows, 18048 columns, 701640 nonzeros
Variable types: 9350 continuous, 8698 integer (8209 binary)
Root relaxation presolved: 17913 rows, 105076 columns, 719121 nonzeros


Root simplex log...

Iteration    Objective       Primal Inf.    Dual Inf.      Time
    6846    2.7846793e+31   3.854788e+31   2.784679e+01      5s
   10352   -9.9116527e-02   6.144874e-05   1.588831e+12     10s
   13052   -9.9116527e-02   6.144874e-05   1.588831e+12     15s
   19670    9.1797200e+33   1.583971e+38   9.179720e+03     20s
   25136    2.1864112e+33   3.666299e+36   2.186411e+03     25s

Root relaxation: time limit, 30269 iterations, 27.88 seconds (86.11 work units)

    Nodes    |    Current Node    |     Objective Bounds      |     Work
 Expl Unexpl |  Obj  Depth IntInf | Incumbent    BestBd   Gap | It/Node Time

     0     0          -    0               -    0.00000      -     -   30s

Explored 1 nodes (30269 simplex iterations) in 30.01 seconds (90.16 work units)
Thread count was 1 (of 20 available processors)

Solution count 0

Time limit reached
Best objective -, best bound 0.000000000000e+00, gap -

User-callback calls 1615, time in user-callback 0.00 sec
